(set-logic QF_LIA)
(declare-fun x0 () Int)
(declare-fun x1 () Int)
(declare-fun x2 () Int)
(declare-fun x3 () Int)
(declare-fun x4 () Int)
(declare-fun x5 () Int)
(declare-fun x6 () Int)
(declare-fun x7 () Int)
(declare-fun x8 () Int)
(declare-fun x9 () Int)
(declare-fun A0 () Bool)
(declare-fun A2 () Bool)
(declare-fun A3 () Bool)
(declare-fun A5 () Bool)
(declare-fun A6 () Bool)
(declare-fun A7 () Bool)
(declare-fun A9 () Bool)
(assert (let ((.def_0 (* 1 x0))) (let ((.def_1 (< .def_0 (- 1)))) (let ((.def_2 (not .def_1))) (let ((.def_3 (not A0))) (let ((.def_4 (and .def_3 .def_2))) (let ((.def_5 (* (- 1) x2))) (let ((.def_6 (< .def_5 (- 1)))) (let ((.def_7 (and A5 .def_6))) (let ((.def_8 (not .def_7))) (let ((.def_9 (= .def_8 .def_4))) (let ((.def_10 (not .def_9))) (let ((.def_11 (* 1 x2))) (let ((.def_12 (* (- 1) x9))) (let ((.def_13 (+ .def_12 .def_11))) (let ((.def_14 (< .def_13 1))) (let ((.def_15 (not A7))) (let ((.def_16 (or .def_15 .def_14))) (let ((.def_17 (not A3))) (let ((.def_18 (= .def_17 A2))) (let ((.def_19 (not .def_18))) (let ((.def_20 (or .def_19 .def_16))) (let ((.def_21 (or .def_20 .def_10))) (let ((.def_22 (* (- 1) x5))) (let ((.def_23 (< .def_22 (- 1)))) (let ((.def_24 (not .def_23))) (let ((.def_25 (and .def_24 A9))) (let ((.def_26 (* 1 x9))) (let ((.def_27 (< .def_26 1))) (let ((.def_28 (* (- 1) x4))) (let ((.def_29 (< .def_28 (- 1)))) (let ((.def_30 (not .def_29))) (let ((.def_31 (and .def_30 .def_27))) (let ((.def_32 (and .def_31 .def_25))) (let ((.def_33 (not .def_32))) (let ((.def_34 (< .def_12 1))) (let ((.def_35 (* 1 x3))) (let ((.def_36 (+ .def_35 .def_0))) (let ((.def_37 (< .def_36 1))) (let ((.def_38 (not .def_37))) (let ((.def_39 (or .def_38 .def_34))) (let ((.def_40 (not .def_39))) (let ((.def_41 (and A3 .def_1))) (let ((.def_42 (not .def_41))) (let ((.def_43 (and .def_42 .def_40))) (let ((.def_44 (not .def_43))) (let ((.def_45 (= .def_44 .def_33))) (let ((.def_46 (not .def_45))) (let ((.def_47 (or .def_46 .def_21))) (let ((.def_48 (not .def_47))) (let ((.def_49 (* 1 x5))) (let ((.def_50 (+ .def_11 .def_49))) (let ((.def_51 (< .def_50 1))) (let ((.def_52 (not .def_51))) (let ((.def_53 (* 1 x8))) (let ((.def_54 (< .def_53 1))) (let ((.def_55 (or .def_54 .def_52))) (let ((.def_56 (and .def_15 A6))) (let ((.def_57 (or .def_56 .def_55))) (let ((.def_58 (* (- 1) x3))) (let ((.def_59 (< .def_58 (- 1)))) (let ((.def_60 (not .def_59))) (let ((.def_61 (and .def_3 .def_60))) (let ((.def_62 (not .def_61))) (let ((.def_63 (and .def_6 A6))) (let ((.def_64 (and .def_63 .def_62))) (let ((.def_65 (not .def_64))) (let ((.def_66 (or .def_65 .def_57))) (let ((.def_67 (* (- 1) x7))) (let ((.def_68 (+ .def_53 .def_67))) (let ((.def_69 (< .def_68 (- 1)))) (let ((.def_70 (not .def_69))) (let ((.def_71 (not A2))) (let ((.def_72 (and .def_71 .def_70))) (let ((.def_73 (not .def_72))) (let ((.def_74 (* (- 1) x8))) (let ((.def_75 (< .def_74 (- 1)))) (let ((.def_76 (not .def_75))) (let ((.def_77 (* (- 1) x0))) (let ((.def_78 (+ .def_26 .def_77))) (let ((.def_79 (< .def_78 1))) (let ((.def_80 (not .def_79))) (let ((.def_81 (and .def_80 .def_76))) (let ((.def_82 (or .def_81 .def_73))) (let ((.def_83 (+ .def_58 .def_11))) (let ((.def_84 (< .def_83 1))) (let ((.def_85 (not .def_84))) (let ((.def_86 (< .def_68 1))) (let ((.def_87 (not .def_86))) (let ((.def_88 (or .def_87 .def_85))) (let ((.def_89 (not A5))) (let ((.def_90 (or A9 .def_89))) (let ((.def_91 (not .def_90))) (let ((.def_92 (or .def_91 .def_88))) (let ((.def_93 (or .def_92 .def_82))) (let ((.def_94 (not .def_93))) (let ((.def_95 (and .def_94 .def_66))) (let ((.def_96 (not .def_95))) (let ((.def_97 (or .def_96 .def_48))) (let ((.def_98 (<= x9 1))) (let ((.def_99 (<= 0 x9))) (let ((.def_100 (<= x8 1))) (let ((.def_101 (<= 0 x8))) (let ((.def_102 (<= x7 1))) (let ((.def_103 (<= 0 x7))) (let ((.def_104 (<= x6 1))) (let ((.def_105 (<= 0 x6))) (let ((.def_106 (<= x5 1))) (let ((.def_107 (<= 0 x5))) (let ((.def_108 (<= x4 1))) (let ((.def_109 (<= 0 x4))) (let ((.def_110 (<= x3 1))) (let ((.def_111 (<= 0 x3))) (let ((.def_112 (<= x2 1))) (let ((.def_113 (<= 0 x2))) (let ((.def_114 (<= x1 1))) (let ((.def_115 (<= 0 x1))) (let ((.def_116 (<= x0 1))) (let ((.def_117 (<= 0 x0))) (let ((.def_118 (and .def_117 .def_116 .def_115 .def_114 .def_113 .def_112 .def_111 .def_110 .def_109 .def_108 .def_107 .def_106 .def_105 .def_104 .def_103 .def_102 .def_101 .def_100 .def_99 .def_98 .def_97))) .def_118))))))))))))))))))))))))))))))))))))))))))))))))))))))))))))))))))))))))))))))))))))))))))))))))))))))))))))))))))))))))
(check-sat)
